
Gurobi 10.0.1 (win64) logging started Sun Oct  8 08:18:08 2023

Set parameter LogFile to value "./results//log/FMS_10_makespan_heurTrue.log"
Gurobi Optimizer version 10.0.1 build v10.0.1rc0 (win64)

CPU model: AMD Ryzen 7 3700X 8-Core Processor, instruction set [SSE2|AVX|AVX2]
Thread count: 8 physical cores, 16 logical processors, using up to 16 threads

Optimize a model with 132 rows, 185 columns and 468 nonzeros
Model fingerprint: 0x504ce457
Variable types: 0 continuous, 185 integer (164 binary)
Coefficient statistics:
  Matrix range     [1e+00, 1e+07]
  Objective range  [1e+00, 1e+00]
  Bounds range     [1e+00, 1e+00]
  RHS range        [1e+00, 3e+07]

User MIP start did not produce a new incumbent solution
User MIP start violates constraint initial_start_time_job1_stage0_machine2_constraint by 420.000000000

Presolve removed 38 rows and 127 columns
Presolve time: 0.00s
Presolved: 94 rows, 58 columns, 371 nonzeros
Variable types: 0 continuous, 58 integer (38 binary)
Found heuristic solution: objective 1.000403e+07

Root relaxation: objective 3.457000e+03, 27 iterations, 0.00 seconds (0.00 work units)
Another try with MIP start

    Nodes    |    Current Node    |     Objective Bounds      |     Work
 Expl Unexpl |  Obj  Depth IntInf | Incumbent    BestBd   Gap | It/Node Time

H    0     0                    5975.0000000 3457.00000  42.1%     -    0s
     0     0 3457.00000    0   12 5975.00000 3457.00000  42.1%     -    0s
H    0     0                    5147.0000000 3457.00000  32.8%     -    0s
H    0     0                    5104.0000000 3457.00000  32.3%     -    0s
     0     0 4379.00000    0   18 5104.00000 4379.00000  14.2%     -    0s
     0     0 4379.00000    0   18 5104.00000 4379.00000  14.2%     -    0s
     0     0 4379.00000    0   20 5104.00000 4379.00000  14.2%     -    0s
     0     0 4379.00000    0   20 5104.00000 4379.00000  14.2%     -    0s
     0     0 4379.00040    0   23 5104.00000 4379.00040  14.2%     -    0s
     0     0 4379.00045    0   24 5104.00000 4379.00045  14.2%     -    0s
     0     0 4389.00000    0   18 5104.00000 4389.00000  14.0%     -    0s
     0     0 4394.00000    0   21 5104.00000 4394.00000  13.9%     -    0s
     0     0 4394.00000    0   23 5104.00000 4394.00000  13.9%     -    0s
     0     0 4397.00000    0   26 5104.00000 4397.00000  13.9%     -    0s
     0     0 4404.00000    0   24 5104.00000 4404.00000  13.7%     -    0s
     0     2 4404.00000    0   23 5104.00000 4404.00000  13.7%     -    0s
*   64    29              10    5093.0000000 4439.00000  12.8%   4.5    0s
H   80    30                    4863.0000000 4439.00000  8.72%   4.4    0s
H  179     4                    4834.0000000 4702.00000  2.73%   3.7    0s

Cutting planes:
  Gomory: 10
  MIR: 4
  Flow cover: 14

Explored 29320 nodes (1855 simplex iterations) in 1.39 seconds (0.32 work units)
Thread count was 16 (of 16 available processors)

Solution count 7: 4834 4863 5093 ... 1.0004e+07

Optimal solution found (tolerance 1.00e-04)
Best objective 4.834000000000e+03, best bound 4.834000000000e+03, gap 0.0000%
Warning: constraint name "precedence between 0,0 to 0,1 if x_[0,0,0,1,3]=0, i.e. 0,1 before 0,0" has a space
Warning: constraint name "precedence between 0,0 to 0,1 if x_[0,0,0,1,3]=0, i.e. 0,1 before 0,0" has a space
Warning: default constraint names used to write mps file
